solution status: optimal solution found
objective value:                             57352.41
y$2                                                 1 	(obj:5700)
y$4                                                 1 	(obj:5700)
y$5                                                 1 	(obj:5700)
y$7                                                 1 	(obj:5700)
y$8                                                 1 	(obj:5700)
y$10                                                1 	(obj:5700)
y$14                                                1 	(obj:5700)
y$15                                                1 	(obj:5700)
y$17                                                1 	(obj:5700)
y$20                                                1 	(obj:5700)
x$1$8                                               1 	(obj:2.55)
x$2$2                                               1 	(obj:3.281)
x$3$7                                               1 	(obj:2.091)
x$4$5                                               1 	(obj:2.21)
x$5$8                                               1 	(obj:3.502)
x$6$4                                               1 	(obj:10.625)
x$7$5                                               1 	(obj:3.842)
x$8$5                                               1 	(obj:3.502)
x$9$17                                              1 	(obj:3.706)
x$10$14                                             1 	(obj:4.794)
x$11$5                                              1 	(obj:3.485)
x$12$4                                              1 	(obj:2.992)
x$13$10                                             1 	(obj:4.692)
x$14$14                                             1 	(obj:2.55)
x$15$7                                              1 	(obj:5.559)
x$16$4                                              1 	(obj:2.771)
x$17$10                                             1 	(obj:3.808)
x$18$7                                              1 	(obj:6.052)
x$19$8                                              1 	(obj:2.873)
x$20$14                                             1 	(obj:2.074)
x$21$2                                              1 	(obj:5.576)
x$22$10                                             1 	(obj:3.434)
x$23$14                                             1 	(obj:1.802)
x$24$17                                             1 	(obj:4.76)
x$25$15                                             1 	(obj:5.083)
x$26$7                                              1 	(obj:2.601)
x$27$20                                             1 	(obj:2.431)
x$28$5                                              1 	(obj:1.87)
x$29$7                                              1 	(obj:2.397)
x$30$17                                             1 	(obj:3.179)
x$31$20                                             1 	(obj:2.703)
x$32$7                                              1 	(obj:4.029)
x$33$8                                              1 	(obj:3.876)
x$34$2                                              1 	(obj:4.233)
x$35$10                                             1 	(obj:5.321)
x$36$15                                             1 	(obj:4.233)
x$37$8                                              1 	(obj:2.278)
x$38$7                                              1 	(obj:3.417)
x$39$2                                              1 	(obj:2.329)
x$40$15                                             1 	(obj:3.672)
x$41$2                                              1 	(obj:2.516)
x$42$15                                             1 	(obj:3.961)
x$43$20                                             1 	(obj:3.094)
x$44$14                                             1 	(obj:2.04)
x$45$4                                              1 	(obj:3.145)
x$46$4                                              1 	(obj:5.78)
x$47$2                                              1 	(obj:5.95)
x$48$10                                             1 	(obj:2.125)
x$49$4                                              1 	(obj:2.618)
x$50$7                                              1 	(obj:2.006)
x$51$4                                              1 	(obj:1.989)
x$52$5                                              1 	(obj:3.077)
x$53$17                                             1 	(obj:4.794)
x$54$4                                              1 	(obj:3.026)
x$55$20                                             1 	(obj:5.066)
x$56$10                                             1 	(obj:5.287)
x$57$15                                             1 	(obj:4.131)
x$58$14                                             1 	(obj:5.117)
x$59$17                                             1 	(obj:2.771)
x$60$20                                             1 	(obj:3.043)
x$61$20                                             1 	(obj:2.873)
x$62$5                                              1 	(obj:2.006)
x$63$14                                             1 	(obj:2.108)
x$64$10                                             1 	(obj:4.59)
x$65$15                                             1 	(obj:6.358)
x$66$5                                              1 	(obj:1.853)
x$67$4                                              1 	(obj:2.822)
x$68$15                                             1 	(obj:1.887)
x$69$14                                             1 	(obj:2.006)
x$70$8                                              1 	(obj:3.927)
x$71$17                                             1 	(obj:2.737)
x$72$2                                              1 	(obj:1.972)
x$73$8                                              1 	(obj:4.199)
x$74$20                                             1 	(obj:2.21)
x$75$5                                              1 	(obj:1.802)
x$76$8                                              1 	(obj:4.488)
x$77$17                                             1 	(obj:1.887)
x$78$17                                             1 	(obj:2.023)
x$79$2                                              1 	(obj:2.312)
x$80$10                                             1 	(obj:1.989)
x$81$14                                             1 	(obj:2.72)
x$82$15                                             1 	(obj:2.448)
x$83$15                                             1 	(obj:6.256)
x$84$2                                              1 	(obj:6.222)
x$85$20                                             1 	(obj:2.448)
x$86$5                                              1 	(obj:4.743)
x$87$20                                             1 	(obj:5.933)
x$88$10                                             1 	(obj:1.853)
x$89$10                                             1 	(obj:4.284)
x$90$14                                             1 	(obj:3.502)
x$91$2                                              1 	(obj:3.808)
x$92$17                                             1 	(obj:2.244)
x$93$20                                             1 	(obj:4.301)
x$94$4                                              1 	(obj:1.853)
x$95$7                                              1 	(obj:5.967)
x$96$15                                             1 	(obj:2.635)
x$97$8                                              1 	(obj:3.417)
x$98$7                                              1 	(obj:5.644)
x$99$17                                             1 	(obj:3.332)
x$100$8                                             1 	(obj:5.032)
